tme04/championnat.cnf
c title
c
p cnf 72 552
c contraintes de types C1
-2 -5 0
-2 -3 0
-2 -9 0
-2 -4 0
-2 -13 0
-5 -3 0
-5 -9 0
-5 -4 0
-5 -13 0
-3 -9 0
-3 -4 0
-3 -13 0
-9 -4 0
-9 -13 0
-4 -13 0
-5 -2 0
-5 -7 0
-5 -10 0
-5 -8 0
-5 -14 0
-2 -7 0
-2 -10 0
-2 -8 0
-2 -14 0
-7 -10 0
-7 -8 0
-7 -14 0
-10 -8 0
-10 -14 0
-8 -14 0
-9 -3 0
-9 -10 0
-9 -7 0
-9 -12 0
-9 -15 0
-3 -10 0
-3 -7 0
-3 -12 0
-3 -15 0
-10 -7 0
-10 -12 0
-10 -15 0
-7 -12 0
-7 -15 0
-12 -15 0
-13 -4 0
-13 -14 0
-13 -8 0
-13 -15 0
-13 -12 0
-4 -14 0
-4 -8 0
-4 -15 0
-4 -12 0
-14 -8 0
-14 -15 0
-14 -12 0
-8 -15 0
-8 -12 0
-15 -12 0
-18 -21 0
-18 -19 0
-18 -25 0
-18 -20 0
-18 -29 0
-21 -19 0
-21 -25 0
-21 -20 0
-21 -29 0
-19 -25 0
-19 -20 0
-19 -29 0
-25 -20 0
-25 -29 0
-20 -29 0
-21 -18 0
-21 -23 0
-21 -26 0
-21 -24 0
-21 -30 0
-18 -23 0
-18 -26 0
-18 -24 0
-18 -30 0
-23 -26 0
-23 -24 0
-23 -30 0
-26 -24 0
-26 -30 0
-24 -30 0
-25 -19 0
-25 -26 0
-25 -23 0
-25 -28 0
-25 -31 0
-19 -26 0
-19 -23 0
-19 -28 0
-19 -31 0
-26 -23 0
-26 -28 0
-26 -31 0
-23 -28 0
-23 -31 0
-28 -31 0
-29 -20 0
-29 -30 0
-29 -24 0
-29 -31 0
-29 -28 0
-20 -30 0
-20 -24 0
-20 -31 0
-20 -28 0
-30 -24 0
-30 -31 0
-30 -28 0
-24 -31 0
-24 -28 0
-31 -28 0
-34 -37 0
-34 -35 0
-34 -41 0
-34 -36 0
-34 -45 0
-37 -35 0
-37 -41 0
-37 -36 0
-37 -45 0
-35 -41 0
-35 -36 0
-35 -45 0
-41 -36 0
-41 -45 0
-36 -45 0
-37 -34 0
-37 -39 0
-37 -42 0
-37 -40 0
-37 -46 0
-34 -39 0
-34 -42 0
-34 -40 0
-34 -46 0
-39 -42 0
-39 -40 0
-39 -46 0
-42 -40 0
-42 -46 0
-40 -46 0
-41 -35 0
-41 -42 0
-41 -39 0
-41 -44 0
-41 -47 0
-35 -42 0
-35 -39 0
-35 -44 0
-35 -47 0
-42 -39 0
-42 -44 0
-42 -47 0
-39 -44 0
-39 -47 0
-44 -47 0
-45 -36 0
-45 -46 0
-45 -40 0
-45 -47 0
-45 -44 0
-36 -46 0
-36 -40 0
-36 -47 0
-36 -44 0
-46 -40 0
-46 -47 0
-46 -44 0
-40 -47 0
-40 -44 0
-47 -44 0
-50 -53 0
-50 -51 0
-50 -57 0
-50 -52 0
-50 -61 0
-53 -51 0
-53 -57 0
-53 -52 0
-53 -61 0
-51 -57 0
-51 -52 0
-51 -61 0
-57 -52 0
-57 -61 0
-52 -61 0
-53 -50 0
-53 -55 0
-53 -58 0
-53 -56 0
-53 -62 0
-50 -55 0
-50 -58 0
-50 -56 0
-50 -62 0
-55 -58 0
-55 -56 0
-55 -62 0
-58 -56 0
-58 -62 0
-56 -62 0
-57 -51 0
-57 -58 0
-57 -55 0
-57 -60 0
-57 -63 0
-51 -58 0
-51 -55 0
-51 -60 0
-51 -63 0
-58 -55 0
-58 -60 0
-58 -63 0
-55 -60 0
-55 -63 0
-60 -63 0
-61 -52 0
-61 -62 0
-61 -56 0
-61 -63 0
-61 -60 0
-52 -62 0
-52 -56 0
-52 -63 0
-52 -60 0
-62 -56 0
-62 -63 0
-62 -60 0
-56 -63 0
-56 -60 0
-63 -60 0
-66 -69 0
-66 -67 0
-66 -73 0
-66 -68 0
-66 -77 0
-69 -67 0
-69 -73 0
-69 -68 0
-69 -77 0
-67 -73 0
-67 -68 0
-67 -77 0
-73 -68 0
-73 -77 0
-68 -77 0
-69 -66 0
-69 -71 0
-69 -74 0
-69 -72 0
-69 -78 0
-66 -71 0
-66 -74 0
-66 -72 0
-66 -78 0
-71 -74 0
-71 -72 0
-71 -78 0
-74 -72 0
-74 -78 0
-72 -78 0
-73 -67 0
-73 -74 0
-73 -71 0
-73 -76 0
-73 -79 0
-67 -74 0
-67 -71 0
-67 -76 0
-67 -79 0
-74 -71 0
-74 -76 0
-74 -79 0
-71 -76 0
-71 -79 0
-76 -79 0
-77 -68 0
-77 -78 0
-77 -72 0
-77 -79 0
-77 -76 0
-68 -78 0
-68 -72 0
-68 -79 0
-68 -76 0
-78 -72 0
-78 -79 0
-78 -76 0
-72 -79 0
-72 -76 0
-79 -76 0
-82 -85 0
-82 -83 0
-82 -89 0
-82 -84 0
-82 -93 0
-85 -83 0
-85 -89 0
-85 -84 0
-85 -93 0
-83 -89 0
-83 -84 0
-83 -93 0
-89 -84 0
-89 -93 0
-84 -93 0
-85 -82 0
-85 -87 0
-85 -90 0
-85 -88 0
-85 -94 0
-82 -87 0
-82 -90 0
-82 -88 0
-82 -94 0
-87 -90 0
-87 -88 0
-87 -94 0
-90 -88 0
-90 -94 0
-88 -94 0
-89 -83 0
-89 -90 0
-89 -87 0
-89 -92 0
-89 -95 0
-83 -90 0
-83 -87 0
-83 -92 0
-83 -95 0
-90 -87 0
-90 -92 0
-90 -95 0
-87 -92 0
-87 -95 0
-92 -95 0
-93 -84 0
-93 -94 0
-93 -88 0
-93 -95 0
-93 -92 0
-84 -94 0
-84 -88 0
-84 -95 0
-84 -92 0
-94 -88 0
-94 -95 0
-94 -92 0
-88 -95 0
-88 -92 0
-95 -92 0
c contraintes de types C2
2 18 34 50 66 82 0
-2 -18 0
-2 -34 0
-2 -50 0
-2 -66 0
-2 -82 0
-18 -34 0
-18 -50 0
-18 -66 0
-18 -82 0
-34 -50 0
-34 -66 0
-34 -82 0
-50 -66 0
-50 -82 0
-66 -82 0
5 21 37 53 69 85 0
-5 -21 0
-5 -37 0
-5 -53 0
-5 -69 0
-5 -85 0
-21 -37 0
-21 -53 0
-21 -69 0
-21 -85 0
-37 -53 0
-37 -69 0
-37 -85 0
-53 -69 0
-53 -85 0
-69 -85 0
3 19 35 51 67 83 0
-3 -19 0
-3 -35 0
-3 -51 0
-3 -67 0
-3 -83 0
-19 -35 0
-19 -51 0
-19 -67 0
-19 -83 0
-35 -51 0
-35 -67 0
-35 -83 0
-51 -67 0
-51 -83 0
-67 -83 0
9 25 41 57 73 89 0
-9 -25 0
-9 -41 0
-9 -57 0
-9 -73 0
-9 -89 0
-25 -41 0
-25 -57 0
-25 -73 0
-25 -89 0
-41 -57 0
-41 -73 0
-41 -89 0
-57 -73 0
-57 -89 0
-73 -89 0
4 20 36 52 68 84 0
-4 -20 0
-4 -36 0
-4 -52 0
-4 -68 0
-4 -84 0
-20 -36 0
-20 -52 0
-20 -68 0
-20 -84 0
-36 -52 0
-36 -68 0
-36 -84 0
-52 -68 0
-52 -84 0
-68 -84 0
13 29 45 61 77 93 0
-13 -29 0
-13 -45 0
-13 -61 0
-13 -77 0
-13 -93 0
-29 -45 0
-29 -61 0
-29 -77 0
-29 -93 0
-45 -61 0
-45 -77 0
-45 -93 0
-61 -77 0
-61 -93 0
-77 -93 0
7 23 39 55 71 87 0
-7 -23 0
-7 -39 0
-7 -55 0
-7 -71 0
-7 -87 0
-23 -39 0
-23 -55 0
-23 -71 0
-23 -87 0
-39 -55 0
-39 -71 0
-39 -87 0
-55 -71 0
-55 -87 0
-71 -87 0
10 26 42 58 74 90 0
-10 -26 0
-10 -42 0
-10 -58 0
-10 -74 0
-10 -90 0
-26 -42 0
-26 -58 0
-26 -74 0
-26 -90 0
-42 -58 0
-42 -74 0
-42 -90 0
-58 -74 0
-58 -90 0
-74 -90 0
8 24 40 56 72 88 0
-8 -24 0
-8 -40 0
-8 -56 0
-8 -72 0
-8 -88 0
-24 -40 0
-24 -56 0
-24 -72 0
-24 -88 0
-40 -56 0
-40 -72 0
-40 -88 0
-56 -72 0
-56 -88 0
-72 -88 0
14 30 46 62 78 94 0
-14 -30 0
-14 -46 0
-14 -62 0
-14 -78 0
-14 -94 0
-30 -46 0
-30 -62 0
-30 -78 0
-30 -94 0
-46 -62 0
-46 -78 0
-46 -94 0
-62 -78 0
-62 -94 0
-78 -94 0
12 28 44 60 76 92 0
-12 -28 0
-12 -44 0
-12 -60 0
-12 -76 0
-12 -92 0
-28 -44 0
-28 -60 0
-28 -76 0
-28 -92 0
-44 -60 0
-44 -76 0
-44 -92 0
-60 -76 0
-60 -92 0
-76 -92 0
15 31 47 63 79 95 0
-15 -31 0
-15 -47 0
-15 -63 0
-15 -79 0
-15 -95 0
-31 -47 0
-31 -63 0
-31 -79 0
-31 -95 0
-47 -63 0
-47 -79 0
-47 -95 0
-63 -79 0
-63 -95 0
-79 -95 0
